(set-info :source |
 Generated by Alive 0.1
 More info in N. P. Lopes, D. Menendez, S. Nagarakatte, J. Regehr.
 Provably Correct Peephole Optimizations with Alive. In PLDI'15.
|)

(set-info :status unknown)
(declare-fun C () (_ BitVec 53))
(declare-fun %x () (_ BitVec 53))
(assert
 (let (($x98322 (and (distinct C (bvshl (_ bv1 53) (bvsub (_ bv53 53) (_ bv1 53)))) true)))
 (let (($x33371 (= (bvsub ((_ sign_extend 1) %x) ((_ sign_extend 1) C)) ((_ sign_extend 1) (bvsub %x C)))))
 (and $x33371 $x98322 false))))
(check-sat)
